(set-info :origin "SVCOMP13 benchmarks generated by Arie Gurfinkel")
(set-info :status unsat)
(set-logic HORN)
(declare-fun cp-rel-bb.i
             (Real
              Real
              Real
              Real
              Real
              Real
              Real
              Real
              Real
              Real
              Real
              Real
              Real
              Real
              Real
              Real
              Real
              Real
              Real
              Real
              Real)
             Bool)
(declare-fun cp-rel-entry () Bool)
(declare-fun cp-rel-__UFO__0
             (Real
              Real
              Real
              Real
              Real
              Real
              Real
              Real
              Real
              Real
              Real
              Real
              Real
              Real
              Real
              Real
              Real
              Real
              Real
              Real
              Real
              Bool
              Real
              Bool
              Real
              Bool
              Real
              Real
              Real
              Bool
              Real)
             Bool)
(declare-fun cp-rel-UnifiedReturnBlock () Bool)
(assert |cp-rel-entry|)
(assert (forall ((?A Real) (?B Real) (?C Real) (?D Real) (?E Real) (?F Real) (?G Real) (?H Real) (?I Real) (?J Real) (?K Real) (?L Real) (?M Real) (?N Real) (?O Real) (?P Real) (?Q Real) (?R Real) (?S Real) (?T Real) (?U Real) (?V Bool) )(let (($x360058 (|cp-rel-bb.i| ?A ?B ?C ?D ?E ?F ?G ?H ?I ?J ?K ?L ?M ?N ?O ?P ?Q ?R ?S ?T ?U)))
(let (($x553268 (= ?V true)))
(let (($x347232 (and |cp-rel-entry| (<= ?U 0.0) (>= ?T 0.0) (<= ?T 0.0) (>= ?S 0.0) (<= ?S 0.0) (>= ?R 0.0) (<= ?R 0.0) (>= ?Q 0.0) (<= ?Q 0.0) (>= ?P 0.0) (<= ?P 0.0) (>= ?O 0.0) (<= ?O 0.0) (>= ?N 0.0) (<= ?N 0.0) (>= ?M 0.0) (<= ?M 0.0) (>= ?L 456.0) (<= ?L 456.0) (>= ?K 123.0) (<= ?K 123.0) (>= ?J 0.0) (<= ?J 0.0) (>= ?I 0.0) (<= ?I 0.0) (>= ?H 0.0) (<= ?H 0.0) (>= ?G 0.0) (<= ?G 0.0) (>= ?F 0.0) (<= ?F 0.0) (>= ?E 0.0) (<= ?E 0.0) (>= ?D 0.0) (<= ?D 0.0) (>= ?C 0.0) (<= ?C 0.0) (>= ?B 0.0) (<= ?B 0.0) (>= ?A 0.0) (<= ?A 0.0) $x553268 (>= ?U 0.0))))
(=> $x347232 $x360058)))))
)
(assert (forall ((?A Real) (?B Real) (?C Real) (?D Real) (?E Real) (?F Real) (?G Real) (?H Real) (?I Real) (?J Real) (?K Real) (?L Real) (?M Real) (?N Real) (?O Real) (?P Real) (?Q Real) (?R Real) (?S Real) (?T Real) (?U Real) (?V Real) (?W Real) (?X Real) (?Y Real) (?Z Real) (?A1 Real) (?B1 Real) (?C1 Real) (?D1 Real) (?E1 Real) (?F1 Real) (?G1 Real) (?H1 Real) (?I1 Real) (?J1 Real) (?K1 Real) (?L1 Real) (?M1 Real) (?N1 Real) (?O1 Real) (?P1 Real) (?Q1 Bool) (?R1 Bool) (?S1 Bool) (?T1 Bool) (?U1 Bool) (?V1 Bool) (?W1 Bool) (?X1 Bool) (?Y1 Bool) (?Z1 Bool) (?A2 Bool) (?B2 Bool) (?C2 Bool) (?D2 Bool) (?E2 Bool) (?F2 Bool) (?G2 Bool) (?H2 Bool) (?I2 Bool) (?J2 Bool) (?K2 Bool) (?L2 Bool) (?M2 Bool) (?N2 Bool) (?O2 Bool) (?P2 Bool) (?Q2 Bool) (?R2 Bool) (?S2 Bool) (?T2 Bool) (?U2 Bool) (?V2 Bool) (?W2 Bool) (?X2 Bool) (?Y2 Bool) (?Z2 Bool) (?A3 Bool) (?B3 Bool) (?C3 Bool) (?D3 Bool) (?E3 Bool) (?F3 Bool) (?G3 Bool) (?H3 Bool) (?I3 Bool) (?J3 Bool) (?K3 Bool) (?L3 Bool) (?M3 Bool) (?N3 Bool) (?O3 Bool) (?P3 Bool) (?Q3 Bool) (?R3 Bool) (?S3 Bool) (?T3 Bool) (?U3 Bool) (?V3 Bool) (?W3 Bool) (?X3 Bool) (?Y3 Bool) (?Z3 Bool) (?A4 Bool) (?B4 Bool) (?C4 Bool) (?D4 Bool) (?E4 Bool) (?F4 Bool) (?G4 Bool) (?H4 Bool) (?I4 Bool) (?J4 Bool) (?K4 Bool) (?L4 Bool) (?M4 Bool) (?N4 Bool) (?O4 Bool) (?P4 Bool) (?Q4 Bool) (?R4 Bool) (?S4 Real) (?T4 Real) (?U4 Real) (?V4 Real) (?W4 Real) (?X4 Real) (?Y4 Real) (?Z4 Real) (?A5 Real) (?B5 Real) (?C5 Real) (?D5 Real) )(let (($x417035 (|cp-rel-bb.i| ?V ?W ?X ?Y ?Z ?A1 ?B1 ?C1 ?D1 ?E1 ?F1 ?G1 ?H1 ?I1 ?J1 ?K1 ?L1 ?M1 ?N1 ?O1 ?P1)))
(let (($x439546 (not ?U1)))
(let (($x134085 (or $x439546 ?V1)))
(let (($x299583 (not ?K2)))
(let (($x492483 (or $x299583 ?L2)))
(let (($x598012 (not ?A4)))
(let (($x418687 (or $x598012 ?B4)))
(let (($x313630 (>= ?O1 ?T)))
(let (($x628573 (<= ?O1 ?T)))
(let (($x340037 (>= ?N1 ?S)))
(let (($x340960 (<= ?N1 ?S)))
(let (($x800465 (>= ?M1 ?R)))
(let (($x337277 (<= ?M1 ?R)))
(let (($x266338 (>= ?L1 ?Q)))
(let (($x266776 (<= ?L1 ?Q)))
(let (($x607553 (>= ?J1 ?O)))
(let (($x560494 (<= ?J1 ?O)))
(let (($x800342 (>= ?I1 ?N)))
(let (($x649201 (<= ?I1 ?N)))
(let (($x111263 (>= ?G1 ?L)))
(let (($x629064 (<= ?G1 ?L)))
(let (($x894296 (>= ?F1 ?K)))
(let (($x167072 (<= ?F1 ?K)))
(let (($x870985 (>= ?E1 ?J)))
(let (($x469412 (<= ?E1 ?J)))
(let (($x868771 (>= ?D1 ?I)))
(let (($x574861 (<= ?D1 ?I)))
(let (($x888462 (>= ?C1 ?H)))
(let (($x379875 (<= ?C1 ?H)))
(let (($x630657 (>= ?B1 ?G)))
(let (($x419915 (<= ?B1 ?G)))
(let (($x415096 (>= ?A1 ?F)))
(let (($x24920 (<= ?A1 ?F)))
(let (($x850323 (>= ?Z ?E)))
(let (($x190531 (<= ?Z ?E)))
(let (($x411889 (>= ?Y ?D)))
(let (($x382469 (<= ?Y ?D)))
(let (($x173460 (>= ?X ?C)))
(let (($x853115 (<= ?X ?C)))
(let (($x353027 (>= ?W ?B)))
(let (($x872376 (<= ?W ?B)))
(let (($x357410 (>= ?V ?S4)))
(let (($x801059 (<= ?V ?S4)))
(let (($x304573 (and ?B2 $x801059 $x357410 $x872376 $x353027 $x853115 $x173460 $x382469 $x411889 $x190531 $x850323 $x24920 $x415096 $x419915 $x630657 $x379875 $x888462 $x574861 $x868771 $x469412 $x870985 $x167072 $x894296 $x629064 $x111263 (<= ?H1 2.0) (>= ?H1 2.0) $x649201 $x800342 $x560494 $x607553 (<= ?K1 456.0) (>= ?K1 456.0) $x266776 $x266338 $x337277 $x800465 $x340960 $x340037 $x628573 $x313630 (<= ?P1 1.0) (>= ?P1 1.0))))
(let (($x873495 (>= ?P1 ?U)))
(let (($x317464 (<= ?P1 ?U)))
(let (($x891298 (>= ?K1 ?P)))
(let (($x480986 (<= ?K1 ?P)))
(let (($x287966 (>= ?H1 ?M)))
(let (($x903195 (<= ?H1 ?M)))
(let (($x897206 (not ?I2)))
(let (($x543953 (and ?D2 $x897206 $x801059 $x357410 $x872376 $x353027 $x853115 $x173460 $x382469 $x411889 $x190531 $x850323 $x24920 $x415096 $x419915 $x630657 $x379875 $x888462 $x574861 $x868771 $x469412 $x870985 $x167072 $x894296 $x629064 $x111263 $x903195 $x287966 $x649201 $x800342 $x560494 $x607553 $x480986 $x891298 $x266776 $x266338 $x337277 $x800465 $x340960 $x340037 (<= ?O1 1.0) (>= ?O1 1.0) $x317464 $x873495)))
(let (($x531664 (not ?P2)))
(let (($x316161 (and ?K2 $x531664 $x801059 $x357410 $x872376 $x353027 $x853115 $x173460 $x382469 $x411889 $x190531 $x850323 $x24920 $x415096 $x419915 $x630657 $x379875 $x888462 $x574861 $x868771 (<= ?E1 1.0) (>= ?E1 1.0) $x167072 $x894296 (<= ?G1 0.0) (>= ?G1 0.0) $x903195 $x287966 $x649201 $x800342 $x560494 $x607553 $x480986 $x891298 $x266776 $x266338 $x337277 $x800465 $x340960 $x340037 $x628573 $x313630 $x317464 $x873495)))
(let (($x625899 (not ?W2)))
(let (($x587814 (and ?R2 $x625899 $x801059 $x357410 $x872376 $x353027 $x853115 $x173460 $x382469 $x411889 $x190531 $x850323 $x24920 $x415096 $x419915 $x630657 $x379875 $x888462 (<= ?D1 1.0) (>= ?D1 1.0) $x469412 $x870985 $x167072 $x894296 $x629064 $x111263 $x903195 $x287966 (<= ?I1 1.0) (>= ?I1 1.0) $x560494 $x607553 $x480986 $x891298 (<= ?L1 123.0) (>= ?L1 123.0) $x337277 $x800465 $x340960 $x340037 $x628573 $x313630 $x317464 $x873495)))
(let (($x251841 (not ?D3)))
(let (($x384901 (and ?Y2 $x251841 $x801059 $x357410 $x872376 $x353027 $x853115 $x173460 $x382469 $x411889 $x190531 $x850323 $x24920 $x415096 $x419915 $x630657 (<= ?C1 1.0) (>= ?C1 1.0) $x574861 $x868771 $x469412 $x870985 $x167072 $x894296 $x629064 $x111263 $x903195 $x287966 $x649201 $x800342 (<= ?J1 2.0) (>= ?J1 2.0) $x480986 $x891298 $x266776 $x266338 (<= ?M1 456.0) (>= ?M1 456.0) $x340960 $x340037 $x628573 $x313630 $x317464 $x873495)))
(let (($x291867 (and ?F3 (not ?K3) $x801059 $x357410 $x872376 $x353027 $x853115 $x173460 $x382469 $x411889 $x190531 $x850323 $x24920 $x415096 (<= ?B1 1.0) (>= ?B1 1.0) $x379875 $x888462 $x574861 $x868771 $x469412 $x870985 $x167072 $x894296 $x629064 $x111263 $x903195 $x287966 $x649201 $x800342 $x560494 $x607553 $x480986 $x891298 $x266776 $x266338 $x337277 $x800465 (<= ?N1 3.0) (>= ?N1 3.0) $x628573 $x313630 $x317464 $x873495)))
(let (($x439281 (not ?R3)))
(let (($x9018 (and ?M3 $x439281 $x801059 $x357410 $x872376 $x353027 $x853115 $x173460 $x382469 $x411889 $x190531 $x850323 (<= ?A1 1.0) (>= ?A1 1.0) $x419915 $x630657 $x379875 $x888462 $x574861 $x868771 $x469412 $x870985 $x167072 $x894296 (<= ?G1 666.0) (>= ?G1 666.0) $x903195 $x287966 $x649201 $x800342 $x560494 $x607553 $x480986 $x891298 $x266776 $x266338 $x337277 $x800465 $x340960 $x340037 $x628573 $x313630 $x317464 $x873495)))
(let (($x892335 (not ?Y3)))
(let (($x811814 (and ?T3 $x892335 $x801059 $x357410 $x872376 $x353027 $x853115 $x173460 $x382469 $x411889 (<= ?Z 1.0) (>= ?Z 1.0) $x24920 $x415096 $x419915 $x630657 $x379875 $x888462 $x574861 $x868771 $x469412 $x870985 $x167072 $x894296 $x629064 $x111263 $x903195 $x287966 $x649201 $x800342 $x560494 $x607553 $x480986 $x891298 $x266776 $x266338 $x337277 $x800465 $x340960 $x340037 $x628573 $x313630 $x317464 $x873495)))
(let (($x57516 (and ?A4 (not ?F4) $x801059 $x357410 $x872376 $x353027 $x853115 $x173460 (<= ?Y 1.0) (>= ?Y 1.0) $x190531 $x850323 $x24920 $x415096 $x419915 $x630657 $x379875 $x888462 $x574861 $x868771 $x469412 $x870985 $x167072 $x894296 $x629064 $x111263 $x903195 $x287966 $x649201 $x800342 (<= ?J1 1.0) (>= ?J1 1.0) $x480986 $x891298 $x266776 $x266338 (<= ?M1 123.0) (>= ?M1 123.0) $x340960 $x340037 $x628573 $x313630 $x317464 $x873495)))
(let (($x555722 (and ?H4 (not ?M4) $x801059 $x357410 $x872376 $x353027 (<= ?X 1.0) (>= ?X 1.0) $x382469 $x411889 $x190531 $x850323 $x24920 $x415096 $x419915 $x630657 $x379875 $x888462 $x574861 $x868771 $x469412 $x870985 (<= ?F1 777.0) (>= ?F1 777.0) $x629064 $x111263 $x903195 $x287966 $x649201 $x800342 $x560494 $x607553 $x480986 $x891298 $x266776 $x266338 $x337277 $x800465 $x340960 $x340037 $x628573 $x313630 $x317464 $x873495)))
(let (($x238959 (and ?O4 (not ?R4) $x801059 $x357410 (<= ?W 1.0) (>= ?W 1.0) $x853115 $x173460 $x382469 $x411889 $x190531 $x850323 $x24920 $x415096 $x419915 $x630657 $x379875 $x888462 $x574861 $x868771 $x469412 $x870985 $x167072 $x894296 $x629064 $x111263 $x903195 $x287966 $x649201 $x800342 (<= ?J1 1.0) (>= ?J1 1.0) $x480986 $x891298 $x266776 $x266338 (<= ?M1 123.0) (>= ?M1 123.0) $x340960 $x340037 $x628573 $x313630 $x317464 $x873495)))
(let (($x585156 (|cp-rel-bb.i| ?A ?B ?C ?D ?E ?F ?G ?H ?I ?J ?K ?L ?M ?N ?O ?P ?Q ?R ?S ?T ?U)))
(let (($x373504 (and $x585156 (= ?Q4 (= ?B 0.0)) (= ?M4 (= ?C5 0.0)) (= ?J4 (= ?C 0.0)) (= ?F4 (= ?B5 0.0)) (= ?C4 (= ?D 0.0)) (= ?Y3 (= ?A5 0.0)) (= ?V3 (= ?E 0.0)) (= ?R3 (= ?Z4 0.0)) (= ?O3 (= ?F 0.0)) (= ?K3 (= ?Y4 0.0)) (= ?H3 (= ?G 0.0)) (= ?D3 (= ?X4 0.0)) (= ?A3 (= ?H 0.0)) (= ?W2 (= ?W4 0.0)) (= ?T2 (= ?I 0.0)) (= ?P2 (= ?V4 0.0)) (= ?M2 (= ?J 0.0)) (= ?I2 (= ?U4 0.0)) (= ?F2 (= ?T 0.0)) (= ?Z1 (= ?T4 0.0)) (= ?W1 (= ?U 0.0)) (= ?S4 (+ 1.0 ?A)) (= ?T1 (not (<= ?A 3.0))) (or $x238959 $x555722 $x57516 $x811814 $x9018 $x291867 $x384901 $x587814 $x316161 $x543953 $x304573) (or (not ?O4) ?P4) (or (not ?O4) (and ?K4 ?P4 ?Q4)) (or (not ?K4) (and ?L4 (not ?N4)) (and ?N4 (not ?L4))) (or (not ?K4) (and ?H4 ?L4 ?M4) (and ?D4 ?N4 (not ?J4))) (or (not ?H4) ?I4) (or (not ?H4) (and ?D4 ?I4 ?J4)) (or (not ?D4) (and ?E4 (not ?G4)) (and ?G4 (not ?E4))) (or (not ?D4) (and ?A4 ?E4 ?F4) (and ?W3 ?G4 (not ?C4))) $x418687 (or $x598012 (and ?W3 ?B4 ?C4)) (or (not ?W3) (and ?X3 (not ?Z3)) (and ?Z3 (not ?X3))) (or (not ?W3) (and ?T3 ?X3 ?Y3) (and ?P3 ?Z3 (not ?V3))) (or (not ?T3) ?U3) (or (not ?T3) (and ?P3 ?U3 ?V3)) (or (not ?P3) (and ?Q3 (not ?S3)) (and ?S3 (not ?Q3))) (or (not ?P3) (and ?M3 ?Q3 ?R3) (and ?I3 ?S3 (not ?O3))) (or (not ?M3) ?N3) (or (not ?M3) (and ?I3 ?N3 ?O3)) (or (not ?I3) (and ?J3 (not ?L3)) (and ?L3 (not ?J3))) (or (not ?I3) (and ?F3 ?J3 ?K3) (and ?B3 ?L3 (not ?H3))) (or (not ?F3) ?G3) (or (not ?F3) (and ?B3 ?G3 ?H3)) (or (not ?B3) (and ?C3 (not ?E3)) (and ?E3 (not ?C3))) (or (not ?B3) (and ?Y2 ?C3 ?D3) (and ?U2 ?E3 (not ?A3))) (or (not ?Y2) ?Z2) (or (not ?Y2) (and ?U2 ?Z2 ?A3)) (or (not ?U2) (and ?V2 (not ?X2)) (and ?X2 (not ?V2))) (or (not ?U2) (and ?R2 ?V2 ?W2) (and ?N2 ?X2 (not ?T2))) (or (not ?R2) ?S2) (or (not ?R2) (and ?N2 ?S2 ?T2)) (or (not ?N2) (and ?O2 (not ?Q2)) (and ?Q2 (not ?O2))) (or (not ?N2) (and ?K2 ?O2 ?P2) (and ?G2 ?Q2 (not ?M2))) $x492483 (or $x299583 (and ?G2 ?L2 ?M2)) (or (not ?G2) (and ?H2 (not ?J2)) (and ?J2 (not ?H2))) (or (not ?G2) (and ?D2 ?H2 ?I2) (and ?X1 ?J2 (not ?F2))) (or (not ?D2) ?E2) (or (not ?D2) (and ?X1 ?E2 ?F2)) (or (not ?B2) ?C2) (or (not ?B2) (and ?U1 ?C2 (not ?Z1))) (or (not ?X1) (and ?Y1 (not ?A2)) (and ?A2 (not ?Y1))) (or (not ?X1) (and ?U1 ?Y1 ?Z1) (and ?Q1 ?A2 (not ?W1))) $x134085 (or $x439546 (and ?Q1 ?V1 ?W1)) (or (not ?Q1) ?S1) (or (not ?Q1) (and ?R1 ?S1 (not ?T1))) (= ?R4 (= ?D5 0.0)))))
(=> $x373504 $x417035))))))))))))))))))))))))))))))))))))))))))))))))))))))))))))))))))))))
)
(assert (forall ((?A Real) (?B Real) (?C Real) (?D Real) (?E Real) (?F Real) (?G Real) (?H Real) (?I Real) (?J Real) (?K Real) (?L Real) (?M Real) (?N Real) (?O Real) (?P Real) (?Q Real) (?R Real) (?S Real) (?T Real) (?U Real) (?V Bool) (?W Bool) (?X Bool) (?Y Bool) (?Z Bool) (?A1 Bool) (?B1 Bool) (?C1 Bool) (?D1 Bool) (?E1 Bool) (?F1 Bool) (?G1 Bool) (?H1 Bool) (?I1 Bool) (?J1 Bool) (?K1 Bool) (?L1 Bool) (?M1 Bool) (?N1 Bool) (?O1 Bool) (?P1 Bool) (?Q1 Bool) (?R1 Bool) (?S1 Bool) (?T1 Bool) (?U1 Bool) (?V1 Bool) (?W1 Bool) (?X1 Bool) (?Y1 Bool) (?Z1 Bool) (?A2 Bool) (?B2 Bool) (?C2 Bool) (?D2 Bool) (?E2 Bool) (?F2 Bool) (?G2 Bool) (?H2 Bool) (?I2 Bool) (?J2 Bool) (?K2 Bool) (?L2 Bool) (?M2 Bool) (?N2 Bool) (?O2 Bool) (?P2 Bool) (?Q2 Bool) (?R2 Bool) (?S2 Bool) (?T2 Bool) (?U2 Bool) (?V2 Bool) (?W2 Bool) (?X2 Bool) (?Y2 Bool) (?Z2 Bool) (?A3 Bool) (?B3 Bool) (?C3 Bool) (?D3 Bool) (?E3 Bool) (?F3 Bool) (?G3 Bool) (?H3 Bool) (?I3 Bool) (?J3 Bool) (?K3 Bool) (?L3 Bool) (?M3 Bool) (?N3 Bool) (?O3 Bool) (?P3 Bool) (?Q3 Bool) (?R3 Bool) (?S3 Bool) (?T3 Bool) (?U3 Bool) (?V3 Real) (?W3 Real) (?X3 Real) (?Y3 Real) (?Z3 Real) (?A4 Real) (?B4 Real) (?C4 Real) (?D4 Real) (?E4 Real) (?F4 Real) (?G4 Real) (?H4 Bool) (?I4 Real) (?J4 Bool) (?K4 Real) (?L4 Bool) (?M4 Real) (?N4 Real) (?O4 Real) (?P4 Bool) (?Q4 Real) (?R4 Bool) (?S4 Bool) (?T4 Bool) (?U4 Bool) (?V4 Bool) (?W4 Bool) (?X4 Bool) (?Y4 Bool) (?Z4 Bool) (?A5 Bool) (?B5 Bool) (?C5 Bool) (?D5 Bool) (?E5 Bool) (?F5 Bool) (?G5 Bool) (?H5 Bool) (?I5 Bool) (?J5 Bool) (?K5 Bool) (?L5 Bool) (?M5 Bool) (?N5 Bool) (?O5 Bool) (?P5 Bool) (?Q5 Bool) (?R5 Bool) (?S5 Bool) (?T5 Bool) (?U5 Bool) (?V5 Bool) (?W5 Bool) (?X5 Bool) (?Y5 Bool) (?Z5 Bool) (?A6 Bool) (?B6 Bool) (?C6 Bool) (?D6 Bool) (?E6 Bool) (?F6 Bool) (?G6 Bool) (?H6 Bool) (?I6 Real) (?J6 Bool) (?K6 Bool) (?L6 Bool) (?M6 Bool) (?N6 Bool) (?O6 Bool) (?P6 Bool) (?Q6 Bool) (?R6 Bool) (?S6 Real) (?T6 Bool) (?U6 Bool) (?V6 Bool) (?W6 Bool) (?X6 Bool) (?Y6 Bool) (?Z6 Bool) (?A7 Bool) (?B7 Bool) (?C7 Real) (?D7 Real) (?E7 Real) (?F7 Real) (?G7 Bool) (?H7 Bool) (?I7 Bool) (?J7 Bool) (?K7 Bool) (?L7 Bool) (?M7 Bool) (?N7 Bool) (?O7 Bool) (?P7 Bool) (?Q7 Bool) (?R7 Bool) (?S7 Bool) (?T7 Real) (?U7 Bool) (?V7 Bool) (?W7 Bool) (?X7 Bool) (?Y7 Bool) (?Z7 Bool) (?A8 Bool) (?B8 Bool) (?C8 Bool) (?D8 Bool) (?E8 Bool) (?F8 Bool) (?G8 Bool) (?H8 Bool) (?I8 Bool) (?J8 Bool) (?K8 Bool) (?L8 Bool) (?M8 Bool) (?N8 Real) (?O8 Bool) (?P8 Bool) (?Q8 Bool) (?R8 Bool) (?S8 Bool) (?T8 Bool) (?U8 Bool) (?V8 Bool) (?W8 Bool) (?X8 Bool) (?Y8 Real) (?Z8 Bool) (?A9 Bool) (?B9 Bool) (?C9 Bool) (?D9 Bool) (?E9 Bool) (?F9 Bool) (?G9 Bool) (?H9 Real) (?I9 Bool) (?J9 Bool) (?K9 Bool) (?L9 Real) (?M9 Real) (?N9 Bool) (?O9 Bool) (?P9 Bool) (?Q9 Bool) (?R9 Bool) (?S9 Bool) (?T9 Bool) (?U9 Bool) (?V9 Bool) (?W9 Bool) (?X9 Bool) (?Y9 Bool) (?Z9 Bool) (?A10 Bool) (?B10 Bool) (?C10 Bool) (?D10 Bool) (?E10 Real) (?F10 Real) )(let (($x133391 (|cp-rel-__UFO__0| ?A ?B ?C ?D ?E ?F ?G ?H ?I ?J ?K ?L ?M ?N ?O ?P ?Q ?R ?S ?T ?U ?H4 ?I4 ?J4 ?K4 ?L4 ?M4 ?N4 ?O4 ?P4 ?Q4)))
(let (($x26988 (not ?R4)))
(let (($x567582 (or $x26988 (and ?R3 ?S4 ?U3) (and ?N3 ?T4 (not ?T3)) (and ?W ?U4 ?Y))))
(let (($x806365 (or $x26988 (and ?S4 (not ?T4) (not ?U4)) (and ?T4 (not ?S4) (not ?U4)) (and ?U4 (not ?S4) (not ?T4)))))
(let (($x373360 (not ?Y4)))
(let (($x846847 (or $x373360 ?Z4)))
(let (($x245207 (and ?R4 ?E5 ?X4 (<= ?M4 ?K4) (>= ?M4 ?K4) (<= ?N4 ?I4) (>= ?N4 ?I4))))
(let (($x873367 (and ?V4 ?D5 ?A5 (<= ?M4 ?K4) (>= ?M4 ?K4) (<= ?N4 ?I4) (>= ?N4 ?I4))))
(let (($x567718 (and ?Y4 ?C5 (<= ?M4 0.0) (>= ?M4 0.0) (<= ?N4 0.0) (>= ?N4 0.0))))
(let (($x645646 (not ?B5)))
(let (($x391581 (or $x645646 (and ?C5 (not ?D5) (not ?E5)) (and ?D5 (not ?C5) (not ?E5)) (and ?E5 (not ?C5) (not ?D5)))))
(let (($x800974 (not ?F5)))
(let (($x604186 (or $x800974 ?G5)))
(let (($x106696 (or (not ?N5) (and ?L5 ?O5 (<= ?Q4 1.0) (>= ?Q4 1.0)) (and ?I5 ?P5 (not ?P4) (<= ?Q4 0.0) (>= ?Q4 0.0)))))
(let (($x556484 (not ?F6)))
(let (($x864852 (or $x556484 (and ?T5 ?G6 ?H6 (<= ?I6 ?K) (>= ?I6 ?K)) (and ?A6 ?J6 ?K6 (<= ?I6 ?L) (>= ?I6 ?L)))))
(let (($x511581 (not ?L6)))
(let (($x898556 (not ?P6)))
(let (($x313588 (or $x898556 (and ?F6 ?Q6 (not ?R6) (<= ?S6 ?I6) (>= ?S6 ?I6)) (and ?D6 ?T6 ?O6 (<= ?S6 789.0) (>= ?S6 789.0)))))
(let (($x889646 (>= ?E7 ?F7)))
(let (($x61904 (<= ?E7 ?F7)))
(let (($x798905 (>= ?C7 ?D7)))
(let (($x603700 (<= ?C7 ?D7)))
(let (($x353179 (not ?H6)))
(let (($x935772 (and ?X6 ?G7 (<= ?C7 0.0) (>= ?C7 0.0) (<= ?E7 0.0) (>= ?E7 0.0))))
(let (($x631286 (not ?A7)))
(let (($x43003 (or $x631286 (and ?L6 ?B7 $x603700 $x798905 $x61904 $x889646) $x935772 (and ?U6 ?H7 ?Z6 $x603700 $x798905 $x61904 $x889646) (and ?P6 ?I7 ?W6 $x603700 $x798905 $x61904 $x889646) (and ?F6 ?J7 ?R6 $x603700 $x798905 $x61904 $x889646) (and ?T5 ?K7 $x353179 $x603700 $x798905 $x61904 $x889646))))
(let (($x222087 (or $x631286 (and ?B7 (not ?G7) (not ?H7) (not ?I7) (not ?J7) (not ?K7)) (and ?G7 (not ?B7) (not ?H7) (not ?I7) (not ?J7) (not ?K7)) (and ?H7 (not ?B7) (not ?G7) (not ?I7) (not ?J7) (not ?K7)) (and ?I7 (not ?B7) (not ?G7) (not ?H7) (not ?J7) (not ?K7)) (and ?J7 (not ?B7) (not ?G7) (not ?H7) (not ?I7) (not ?K7)) (and ?K7 (not ?B7) (not ?G7) (not ?H7) (not ?I7) (not ?J7)))))
(let (($x582567 (not ?O7)))
(let (($x872909 (or $x582567 ?P7)))
(let (($x246335 (not ?Q7)))
(let (($x421827 (or $x246335 (and ?L7 ?R7 ?S7 (<= ?T7 ?P) (>= ?T7 ?P)) (and ?O7 ?U7 ?V7 (<= ?T7 ?R) (>= ?T7 ?R)))))
(let (($x104802 (not ?I8)))
(let (($x283553 (or $x104802 ?J8)))
(let (($x124010 (not ?K8)))
(let (($x388741 (or $x124010 (and ?F8 ?L8 ?M8 (<= ?N8 ?P) (>= ?N8 ?P)) (and ?I8 ?O8 ?P8 (<= ?N8 ?R) (>= ?N8 ?R)))))
(let (($x36901 (not ?W8)))
(let (($x803965 (or $x36901 (and ?T8 ?X8 (<= ?Y8 1.0) (>= ?Y8 1.0)) (and ?Q8 ?Z8 ?V8 (<= ?Y8 ?Q4) (>= ?Y8 ?Q4)) (and ?K8 ?A9 ?S8 (<= ?Y8 ?Q4) (>= ?Y8 ?Q4)) (and ?F8 ?B9 (not ?M8) (<= ?Y8 ?Q4) (>= ?Y8 ?Q4)) (and ?I8 ?C9 (not ?P8) (<= ?Y8 ?Q4) (>= ?Y8 ?Q4)) (and ?Z7 ?D9 (not ?E8) (<= ?Y8 ?Q4) (>= ?Y8 ?Q4)))))
(let (($x375282 (or $x36901 (and ?X8 (not ?Z8) (not ?A9) (not ?B9) (not ?C9) (not ?D9)) (and ?Z8 (not ?X8) (not ?A9) (not ?B9) (not ?C9) (not ?D9)) (and ?A9 (not ?X8) (not ?Z8) (not ?B9) (not ?C9) (not ?D9)) (and ?B9 (not ?X8) (not ?Z8) (not ?A9) (not ?C9) (not ?D9)) (and ?C9 (not ?X8) (not ?Z8) (not ?A9) (not ?B9) (not ?D9)) (and ?D9 (not ?X8) (not ?Z8) (not ?A9) (not ?B9) (not ?C9)))))
(let (($x588205 (|cp-rel-bb.i| ?A ?B ?C ?D ?E ?F ?G ?H ?I ?J ?K ?L ?M ?N ?O ?P ?Q ?R ?S ?T ?U)))
(let (($x872692 (and $x588205 (= ?G9 (= ?E10 0.0)) (= ?E10 (ite ?D10 ?S 0.0)) (= ?D10 (= ?S 2.0)) (= ?V8 (or ?C10 ?X9)) (= ?C10 (not (= ?N8 ?M9))) (= ?S8 (= ?N8 0.0)) (= ?P8 (and ?A10 ?B10)) (= ?B10 (= ?O 2.0)) (= ?A10 (= ?S 3.0)) (= ?M8 (and ?Z9 ?H4)) (= ?Z9 (= ?S 1.0)) (= ?H8 (not (<= 2.0 ?S))) (= ?E8 (= ?C7 0.0)) (= ?B8 (or ?Y9 ?X9)) (= ?Y9 (not (= ?T7 ?M9))) (= ?X9 (= ?M9 0.0)) (= ?Y7 (= ?T7 0.0)) (= ?V7 (and ?V9 ?W9)) (= ?W9 (= ?O 2.0)) (= ?V9 (= ?S 3.0)) (= ?S7 (and ?U9 ?H4)) (= ?U9 (= ?S 1.0)) (= ?N7 (not (<= 2.0 ?S))) (= ?Z6 (or ?T9 ?R9)) (= ?T9 (or ?S9 ?Q9)) (= ?S9 (not (= ?S6 ?F7))) (= ?R9 (= ?S6 0.0)) (= ?Q9 (= ?F7 0.0)) (= ?W6 (= ?D7 0.0)) (= ?R6 (= ?I6 0.0)) (= ?O6 (= ?S 3.0)) (= ?K6 (= ?S 2.0)) (= ?C6 (not (<= 3.0 ?S))) (= ?H6 (= ?S 1.0)) (= ?V5 (not (<= 2.0 ?S))) (= ?D7 (ite ?P9 ?M4 1.0)) (= ?F7 (ite ?P9 ?N4 ?Q)) (= ?P9 (or ?O9 ?N9)) (= ?O9 (= ?Q 0.0)) (= ?N9 (not (= ?S ?N))) (= ?M9 (ite ?L4 ?K ?L)) (= ?L9 (ite ?P4 1.0 0.0)) (= ?S5 (= ?S 0.0)) (= ?P4 (= ?M4 0.0)) (= ?K5 (= ?O4 ?K)) (= ?H5 (= ?O4 0.0)) (= ?O4 (ite ?K9 ?Q 0.0)) (= ?K9 (= ?N 1.0)) (= ?A5 (or ?J9 ?J4)) (= ?J9 (or ?I9 ?L4)) (= ?I9 (not (= ?L ?I4))) (= ?X4 (or ?J4 ?L4)) (= ?L4 (= ?L 0.0)) (= ?H9 (ite ?J4 1.0 0.0)) (= ?J4 (= ?I4 0.0)) (= ?I4 (ite ?H4 ?P 0.0)) (= ?H4 (= ?M 2.0)) (= ?U3 (= ?G4 0.0)) (= ?T3 (= ?B 0.0)) (= ?P3 (= ?F4 0.0)) (= ?M3 (= ?C 0.0)) (= ?I3 (= ?E4 0.0)) (= ?F3 (= ?D 0.0)) (= ?B3 (= ?D4 0.0)) (= ?Y2 (= ?E 0.0)) (= ?U2 (= ?C4 0.0)) (= ?R2 (= ?F 0.0)) (= ?N2 (= ?B4 0.0)) (= ?K2 (= ?G 0.0)) (= ?G2 (= ?A4 0.0)) (= ?D2 (= ?H 0.0)) (= ?Z1 (= ?Z3 0.0)) (= ?W1 (= ?I 0.0)) (= ?S1 (= ?Y3 0.0)) (= ?P1 (= ?J 0.0)) (= ?L1 (= ?X3 0.0)) (= ?I1 (= ?T 0.0)) (= ?E1 (= ?W3 0.0)) (= ?B1 (= ?U 0.0)) (= ?V3 (+ 1.0 ?A)) (= ?Y (not (<= ?A 3.0))) (or ?E9 (and ?W8 ?G9) (and ?N5 ?S5)) (or (not ?E9) ?F9) (or (not ?E9) (and ?W8 ?F9 (not ?G9))) $x375282 $x803965 (or (not ?T8) ?U8) (or (not ?T8) (and ?Q8 ?U8 (not ?V8))) (or (not ?Q8) ?R8) (or (not ?Q8) (and ?K8 ?R8 (not ?S8))) (or $x124010 (and ?L8 (not ?O8)) (and ?O8 (not ?L8))) $x388741 $x283553 (or $x104802 (and ?C8 ?J8 (not ?H8))) (or (not ?F8) ?G8) (or (not ?F8) (and ?C8 ?G8 ?H8)) (or (not ?C8) ?D8) (or (not ?C8) (and ?Z7 ?D8 ?E8)) (or (not ?Z7) ?A8) (or (not ?Z7) (and ?W7 ?A8 (not ?B8))) (or (not ?W7) ?X7) (or (not ?W7) (and ?Q7 ?X7 (not ?Y7))) (or $x246335 (and ?R7 (not ?U7)) (and ?U7 (not ?R7))) $x421827 $x872909 (or $x582567 (and ?A7 ?P7 (not ?N7))) (or (not ?L7) ?M7) (or (not ?L7) (and ?A7 ?M7 ?N7)) $x222087 $x43003 (or (not ?X6) ?Y6) (or (not ?X6) (and ?U6 ?Y6 (not ?Z6))) (or (not ?U6) ?V6) (or (not ?U6) (and ?P6 ?V6 (not ?W6))) (or $x898556 (and ?Q6 (not ?T6)) (and ?T6 (not ?Q6))) $x313588 (or $x511581 (and ?M6 (not ?N6)) (and ?N6 (not ?M6))) (or $x511581 (and ?A6 ?M6 (not ?K6)) (and ?D6 ?N6 (not ?O6))) (or $x556484 (and ?G6 (not ?J6)) (and ?J6 (not ?G6))) $x864852 (or (not ?D6) ?E6) (or (not ?D6) (and ?Y5 ?E6 (not ?C6))) (or (not ?A6) ?B6) (or (not ?A6) (and ?Y5 ?B6 ?C6)) (or (not ?Y5) ?Z5) (or (not ?Y5) (and ?W5 ?Z5)) (or (not ?W5) ?X5) (or (not ?W5) (and ?Q5 ?X5 (not ?V5))) (or (not ?T5) ?U5) (or (not ?T5) (and ?Q5 ?U5 ?V5)) (or (not ?Q5) ?R5) (or (not ?Q5) (and ?N5 ?R5 (not ?S5))) (or (not ?N5) (and ?O5 (not ?P5)) (and ?P5 (not ?O5))) $x106696 (or (not ?L5) ?M5) (or (not ?L5) (and ?I5 ?M5 ?P4)) (or (not ?I5) ?J5) (or (not ?I5) (and ?F5 ?J5 ?K5)) $x604186 (or $x800974 (and ?B5 ?G5 (not ?H5))) $x391581 (or $x645646 $x567718 $x873367 $x245207) $x846847 (or $x373360 (and ?V4 ?Z4 (not ?A5))) (or (not ?V4) ?W4) (or (not ?V4) (and ?R4 ?W4 (not ?X4))) $x806365 $x567582 (or (not ?R3) ?S3) (or (not ?R3) (and ?N3 ?S3 ?T3)) (or (not ?N3) (and ?O3 (not ?Q3)) (and ?Q3 (not ?O3))) (or (not ?N3) (and ?K3 ?O3 ?P3) (and ?G3 ?Q3 (not ?M3))) (or (not ?K3) ?L3) (or (not ?K3) (and ?G3 ?L3 ?M3)) (or (not ?G3) (and ?H3 (not ?J3)) (and ?J3 (not ?H3))) (or (not ?G3) (and ?D3 ?H3 ?I3) (and ?Z2 ?J3 (not ?F3))) (or (not ?D3) ?E3) (or (not ?D3) (and ?Z2 ?E3 ?F3)) (or (not ?Z2) (and ?A3 (not ?C3)) (and ?C3 (not ?A3))) (or (not ?Z2) (and ?W2 ?A3 ?B3) (and ?S2 ?C3 (not ?Y2))) (or (not ?W2) ?X2) (or (not ?W2) (and ?S2 ?X2 ?Y2)) (or (not ?S2) (and ?T2 (not ?V2)) (and ?V2 (not ?T2))) (or (not ?S2) (and ?P2 ?T2 ?U2) (and ?L2 ?V2 (not ?R2))) (or (not ?P2) ?Q2) (or (not ?P2) (and ?L2 ?Q2 ?R2)) (or (not ?L2) (and ?M2 (not ?O2)) (and ?O2 (not ?M2))) (or (not ?L2) (and ?I2 ?M2 ?N2) (and ?E2 ?O2 (not ?K2))) (or (not ?I2) ?J2) (or (not ?I2) (and ?E2 ?J2 ?K2)) (or (not ?E2) (and ?F2 (not ?H2)) (and ?H2 (not ?F2))) (or (not ?E2) (and ?B2 ?F2 ?G2) (and ?X1 ?H2 (not ?D2))) (or (not ?B2) ?C2) (or (not ?B2) (and ?X1 ?C2 ?D2)) (or (not ?X1) (and ?Y1 (not ?A2)) (and ?A2 (not ?Y1))) (or (not ?X1) (and ?U1 ?Y1 ?Z1) (and ?Q1 ?A2 (not ?W1))) (or (not ?U1) ?V1) (or (not ?U1) (and ?Q1 ?V1 ?W1)) (or (not ?Q1) (and ?R1 (not ?T1)) (and ?T1 (not ?R1))) (or (not ?Q1) (and ?N1 ?R1 ?S1) (and ?J1 ?T1 (not ?P1))) (or (not ?N1) ?O1) (or (not ?N1) (and ?J1 ?O1 ?P1)) (or (not ?J1) (and ?K1 (not ?M1)) (and ?M1 (not ?K1))) (or (not ?J1) (and ?G1 ?K1 ?L1) (and ?C1 ?M1 (not ?I1))) (or (not ?G1) ?H1) (or (not ?G1) (and ?C1 ?H1 ?I1)) (or (not ?C1) (and ?D1 (not ?F1)) (and ?F1 (not ?D1))) (or (not ?C1) (and ?Z ?D1 ?E1) (and ?V ?F1 (not ?B1))) (or (not ?Z) ?A1) (or (not ?Z) (and ?V ?A1 ?B1)) (or (not ?V) ?X) (or (not ?V) (and ?W ?X (not ?Y))) (= ?F10 (ite ?E8 1.0 0.0)))))
(=> $x872692 $x133391)))))))))))))))))))))))))))))))))))))))))))
)
(assert (forall ((?A Bool) (?B Real) (?C Bool) (?D Real) (?E Bool) (?F Real) (?G Real) (?H Real) (?I Bool) (?J Real) (?K Real) (?L Real) (?M Real) (?N Real) (?O Real) (?P Real) (?Q Real) (?R Real) (?S Real) (?T Real) (?U Real) (?V Real) (?W Real) (?X Real) (?Y Real) (?Z Real) (?A1 Real) (?B1 Real) (?C1 Real) (?D1 Real) (?E1 Real) (?F1 Bool) )(let (($x541334 (|cp-rel-__UFO__0| ?K ?L ?M ?N ?O ?P ?Q ?R ?S ?T ?U ?V ?W ?X ?Y ?Z ?A1 ?B1 ?C1 ?D1 ?E1 ?A ?B ?C ?D ?E ?F ?G ?H ?I ?J)))
(=> (and $x541334 (= ?F1 true)) $x541334)))
)
(assert (forall ((?A Real) (?B Real) (?C Real) (?D Real) (?E Real) (?F Real) (?G Real) (?H Real) (?I Real) (?J Real) (?K Real) (?L Real) (?M Real) (?N Real) (?O Real) (?P Real) (?Q Real) (?R Real) (?S Real) (?T Real) (?U Real) (?V Bool) (?W Bool) (?X Bool) (?Y Bool) (?Z Bool) (?A1 Bool) (?B1 Bool) (?C1 Bool) (?D1 Bool) (?E1 Bool) (?F1 Bool) (?G1 Bool) (?H1 Bool) (?I1 Bool) (?J1 Bool) (?K1 Bool) (?L1 Bool) (?M1 Bool) (?N1 Bool) (?O1 Bool) (?P1 Bool) (?Q1 Bool) (?R1 Bool) (?S1 Bool) (?T1 Bool) (?U1 Bool) (?V1 Bool) (?W1 Bool) (?X1 Bool) (?Y1 Bool) (?Z1 Bool) (?A2 Bool) (?B2 Bool) (?C2 Bool) (?D2 Bool) (?E2 Bool) (?F2 Bool) (?G2 Bool) (?H2 Bool) (?I2 Bool) (?J2 Bool) (?K2 Bool) (?L2 Bool) (?M2 Bool) (?N2 Bool) (?O2 Bool) (?P2 Bool) (?Q2 Bool) (?R2 Bool) (?S2 Bool) (?T2 Bool) (?U2 Bool) (?V2 Bool) (?W2 Bool) (?X2 Bool) (?Y2 Bool) (?Z2 Bool) (?A3 Bool) (?B3 Bool) (?C3 Bool) (?D3 Bool) (?E3 Bool) (?F3 Bool) (?G3 Bool) (?H3 Bool) (?I3 Bool) (?J3 Bool) (?K3 Bool) (?L3 Bool) (?M3 Bool) (?N3 Bool) (?O3 Bool) (?P3 Bool) (?Q3 Bool) (?R3 Bool) (?S3 Bool) (?T3 Bool) (?U3 Bool) (?V3 Real) (?W3 Real) (?X3 Real) (?Y3 Real) (?Z3 Real) (?A4 Real) (?B4 Real) (?C4 Real) (?D4 Real) (?E4 Real) (?F4 Real) (?G4 Real) (?H4 Bool) (?I4 Real) (?J4 Bool) (?K4 Real) (?L4 Bool) (?M4 Real) (?N4 Real) (?O4 Real) (?P4 Bool) (?Q4 Real) (?R4 Bool) (?S4 Bool) (?T4 Bool) (?U4 Bool) (?V4 Bool) (?W4 Bool) (?X4 Bool) (?Y4 Bool) (?Z4 Bool) (?A5 Bool) (?B5 Bool) (?C5 Bool) (?D5 Bool) (?E5 Bool) (?F5 Bool) (?G5 Bool) (?H5 Bool) (?I5 Bool) (?J5 Bool) (?K5 Bool) (?L5 Bool) (?M5 Bool) (?N5 Bool) (?O5 Bool) (?P5 Bool) (?Q5 Bool) (?R5 Bool) (?S5 Bool) (?T5 Bool) (?U5 Bool) (?V5 Bool) (?W5 Bool) (?X5 Bool) (?Y5 Bool) (?Z5 Bool) (?A6 Bool) (?B6 Bool) (?C6 Bool) (?D6 Bool) (?E6 Bool) (?F6 Bool) (?G6 Bool) (?H6 Bool) (?I6 Real) (?J6 Bool) (?K6 Bool) (?L6 Bool) (?M6 Bool) (?N6 Bool) (?O6 Bool) (?P6 Bool) (?Q6 Bool) (?R6 Bool) (?S6 Real) (?T6 Bool) (?U6 Bool) (?V6 Bool) (?W6 Bool) (?X6 Bool) (?Y6 Bool) (?Z6 Bool) (?A7 Bool) (?B7 Bool) (?C7 Real) (?D7 Real) (?E7 Real) (?F7 Real) (?G7 Bool) (?H7 Bool) (?I7 Bool) (?J7 Bool) (?K7 Bool) (?L7 Bool) (?M7 Bool) (?N7 Bool) (?O7 Bool) (?P7 Bool) (?Q7 Bool) (?R7 Bool) (?S7 Bool) (?T7 Real) (?U7 Bool) (?V7 Bool) (?W7 Bool) (?X7 Bool) (?Y7 Bool) (?Z7 Bool) (?A8 Real) (?B8 Bool) (?C8 Bool) (?D8 Bool) (?E8 Real) (?F8 Real) (?G8 Bool) (?H8 Bool) (?I8 Bool) (?J8 Bool) (?K8 Bool) (?L8 Bool) (?M8 Bool) (?N8 Bool) (?O8 Bool) (?P8 Bool) (?Q8 Bool) (?R8 Bool) )(let (($x373360 (not ?K3)))
(let (($x846847 (or $x373360 ?L3)))
(let (($x800974 (not ?R3)))
(let (($x604186 (or $x800974 ?S3)))
(let (($x556484 (not ?R4)))
(let (($x611283 (or $x556484 (and ?R3 ?S4 ?U3) (and ?N3 ?T4 (not ?T3)) (and ?W ?U4 ?Y))))
(let (($x48133 (or $x556484 (and ?S4 (not ?T4) (not ?U4)) (and ?T4 (not ?S4) (not ?U4)) (and ?U4 (not ?S4) (not ?T4)))))
(let (($x154908 (and ?R4 ?E5 ?X4 (<= ?M4 ?K4) (>= ?M4 ?K4) (<= ?N4 ?I4) (>= ?N4 ?I4))))
(let (($x533957 (and ?V4 ?D5 ?A5 (<= ?M4 ?K4) (>= ?M4 ?K4) (<= ?N4 ?I4) (>= ?N4 ?I4))))
(let (($x567016 (and ?Y4 ?C5 (<= ?M4 0.0) (>= ?M4 0.0) (<= ?N4 0.0) (>= ?N4 0.0))))
(let (($x898556 (not ?B5)))
(let (($x637963 (or $x898556 (and ?C5 (not ?D5) (not ?E5)) (and ?D5 (not ?C5) (not ?E5)) (and ?E5 (not ?C5) (not ?D5)))))
(let (($x439546 (not ?I5)))
(let (($x134085 (or $x439546 ?J5)))
(let (($x874513 (not ?N5)))
(let (($x524809 (or $x874513 (and ?L5 ?O5 (<= ?Q4 1.0) (>= ?Q4 1.0)) (and ?I5 ?P5 (not ?P4) (<= ?Q4 0.0) (>= ?Q4 0.0)))))
(let (($x299583 (not ?Y5)))
(let (($x492483 (or $x299583 ?Z5)))
(let (($x582567 (not ?A6)))
(let (($x872909 (or $x582567 ?B6)))
(let (($x375939 (not ?F6)))
(let (($x87611 (or $x375939 (and ?T5 ?G6 ?H6 (<= ?I6 ?K) (>= ?I6 ?K)) (and ?A6 ?J6 ?K6 (<= ?I6 ?L) (>= ?I6 ?L)))))
(let (($x485014 (not ?L6)))
(let (($x246613 (not ?P6)))
(let (($x770846 (or $x246613 (and ?F6 ?Q6 (not ?R6) (<= ?S6 ?I6) (>= ?S6 ?I6)) (and ?D6 ?T6 ?O6 (<= ?S6 789.0) (>= ?S6 789.0)))))
(let (($x104802 (not ?U6)))
(let (($x283553 (or $x104802 ?V6)))
(let (($x606638 (>= ?E7 ?F7)))
(let (($x786979 (<= ?E7 ?F7)))
(let (($x115989 (>= ?C7 ?D7)))
(let (($x382871 (<= ?C7 ?D7)))
(let (($x893507 (and ?X6 ?G7 (<= ?C7 0.0) (>= ?C7 0.0) (<= ?E7 0.0) (>= ?E7 0.0))))
(let (($x518022 (not ?A7)))
(let (($x649566 (or $x518022 (and ?L6 ?B7 $x382871 $x115989 $x786979 $x606638) $x893507 (and ?U6 ?H7 ?Z6 $x382871 $x115989 $x786979 $x606638) (and ?P6 ?I7 ?W6 $x382871 $x115989 $x786979 $x606638) (and ?F6 ?J7 ?R6 $x382871 $x115989 $x786979 $x606638) (and ?T5 ?K7 (not ?H6) $x382871 $x115989 $x786979 $x606638))))
(let (($x129962 (or $x518022 (and ?B7 (not ?G7) (not ?H7) (not ?I7) (not ?J7) (not ?K7)) (and ?G7 (not ?B7) (not ?H7) (not ?I7) (not ?J7) (not ?K7)) (and ?H7 (not ?B7) (not ?G7) (not ?I7) (not ?J7) (not ?K7)) (and ?I7 (not ?B7) (not ?G7) (not ?H7) (not ?J7) (not ?K7)) (and ?J7 (not ?B7) (not ?G7) (not ?H7) (not ?I7) (not ?K7)) (and ?K7 (not ?B7) (not ?G7) (not ?H7) (not ?I7) (not ?J7)))))
(let (($x598012 (not ?O7)))
(let (($x418687 (or $x598012 ?P7)))
(let (($x572786 (not ?Q7)))
(let (($x805640 (or $x572786 (and ?L7 ?R7 ?S7 (<= ?T7 ?P) (>= ?T7 ?P)) (and ?O7 ?U7 ?V7 (<= ?T7 ?R) (>= ?T7 ?R)))))
(let (($x934810 (or (and ?W7 ?Z7) (and ?Q7 ?Y7) (and ?L7 (not ?S7)) (and ?O7 (not ?V7)) (and ?F5 (not ?K5)) (and ?B5 ?H5))))
(let (($x211219 (|cp-rel-bb.i| ?A ?B ?C ?D ?E ?F ?G ?H ?I ?J ?K ?L ?M ?N ?O ?P ?Q ?R ?S ?T ?U)))
(let (($x169253 (and $x211219 (= ?R8 (not (= ?T7 ?F8))) (= ?Q8 (= ?F8 0.0)) (= ?Y7 (= ?T7 0.0)) (= ?V7 (and ?O8 ?P8)) (= ?P8 (= ?O 2.0)) (= ?O8 (= ?S 3.0)) (= ?S7 (and ?N8 ?H4)) (= ?N8 (= ?S 1.0)) (= ?N7 (not (<= 2.0 ?S))) (= ?Z6 (or ?M8 ?K8)) (= ?M8 (or ?L8 ?J8)) (= ?L8 (not (= ?S6 ?F7))) (= ?K8 (= ?S6 0.0)) (= ?J8 (= ?F7 0.0)) (= ?W6 (= ?D7 0.0)) (= ?R6 (= ?I6 0.0)) (= ?O6 (= ?S 3.0)) (= ?K6 (= ?S 2.0)) (= ?C6 (not (<= 3.0 ?S))) (= ?H6 (= ?S 1.0)) (= ?V5 (not (<= 2.0 ?S))) (= ?D7 (ite ?I8 ?M4 1.0)) (= ?F7 (ite ?I8 ?N4 ?Q)) (= ?I8 (or ?H8 ?G8)) (= ?H8 (= ?Q 0.0)) (= ?G8 (not (= ?S ?N))) (= ?F8 (ite ?L4 ?K ?L)) (= ?E8 (ite ?P4 1.0 0.0)) (= ?S5 (= ?S 0.0)) (= ?P4 (= ?M4 0.0)) (= ?K5 (= ?O4 ?K)) (= ?H5 (= ?O4 0.0)) (= ?O4 (ite ?D8 ?Q 0.0)) (= ?D8 (= ?N 1.0)) (= ?A5 (or ?C8 ?J4)) (= ?C8 (or ?B8 ?L4)) (= ?B8 (not (= ?L ?I4))) (= ?X4 (or ?J4 ?L4)) (= ?L4 (= ?L 0.0)) (= ?A8 (ite ?J4 1.0 0.0)) (= ?J4 (= ?I4 0.0)) (= ?I4 (ite ?H4 ?P 0.0)) (= ?H4 (= ?M 2.0)) (= ?U3 (= ?G4 0.0)) (= ?T3 (= ?B 0.0)) (= ?P3 (= ?F4 0.0)) (= ?M3 (= ?C 0.0)) (= ?I3 (= ?E4 0.0)) (= ?F3 (= ?D 0.0)) (= ?B3 (= ?D4 0.0)) (= ?Y2 (= ?E 0.0)) (= ?U2 (= ?C4 0.0)) (= ?R2 (= ?F 0.0)) (= ?N2 (= ?B4 0.0)) (= ?K2 (= ?G 0.0)) (= ?G2 (= ?A4 0.0)) (= ?D2 (= ?H 0.0)) (= ?Z1 (= ?Z3 0.0)) (= ?W1 (= ?I 0.0)) (= ?S1 (= ?Y3 0.0)) (= ?P1 (= ?J 0.0)) (= ?L1 (= ?X3 0.0)) (= ?I1 (= ?T 0.0)) (= ?E1 (= ?W3 0.0)) (= ?B1 (= ?U 0.0)) (= ?V3 (+ 1.0 ?A)) (= ?Y (not (<= ?A 3.0))) $x934810 (or (not ?W7) ?X7) (or (not ?W7) (and ?Q7 ?X7 (not ?Y7))) (or $x572786 (and ?R7 (not ?U7)) (and ?U7 (not ?R7))) $x805640 $x418687 (or $x598012 (and ?A7 ?P7 (not ?N7))) (or (not ?L7) ?M7) (or (not ?L7) (and ?A7 ?M7 ?N7)) $x129962 $x649566 (or (not ?X6) ?Y6) (or (not ?X6) (and ?U6 ?Y6 (not ?Z6))) $x283553 (or $x104802 (and ?P6 ?V6 (not ?W6))) (or $x246613 (and ?Q6 (not ?T6)) (and ?T6 (not ?Q6))) $x770846 (or $x485014 (and ?M6 (not ?N6)) (and ?N6 (not ?M6))) (or $x485014 (and ?A6 ?M6 (not ?K6)) (and ?D6 ?N6 (not ?O6))) (or $x375939 (and ?G6 (not ?J6)) (and ?J6 (not ?G6))) $x87611 (or (not ?D6) ?E6) (or (not ?D6) (and ?Y5 ?E6 (not ?C6))) $x872909 (or $x582567 (and ?Y5 ?B6 ?C6)) $x492483 (or $x299583 (and ?W5 ?Z5)) (or (not ?W5) ?X5) (or (not ?W5) (and ?Q5 ?X5 (not ?V5))) (or (not ?T5) ?U5) (or (not ?T5) (and ?Q5 ?U5 ?V5)) (or (not ?Q5) ?R5) (or (not ?Q5) (and ?N5 ?R5 (not ?S5))) (or $x874513 (and ?O5 (not ?P5)) (and ?P5 (not ?O5))) $x524809 (or (not ?L5) ?M5) (or (not ?L5) (and ?I5 ?M5 ?P4)) $x134085 (or $x439546 (and ?F5 ?J5 ?K5)) (or (not ?F5) ?G5) (or (not ?F5) (and ?B5 ?G5 (not ?H5))) $x637963 (or $x898556 $x567016 $x533957 $x154908) (or (not ?Y4) ?Z4) (or (not ?Y4) (and ?V4 ?Z4 (not ?A5))) (or (not ?V4) ?W4) (or (not ?V4) (and ?R4 ?W4 (not ?X4))) $x48133 $x611283 $x604186 (or $x800974 (and ?N3 ?S3 ?T3)) (or (not ?N3) (and ?O3 (not ?Q3)) (and ?Q3 (not ?O3))) (or (not ?N3) (and ?K3 ?O3 ?P3) (and ?G3 ?Q3 (not ?M3))) $x846847 (or $x373360 (and ?G3 ?L3 ?M3)) (or (not ?G3) (and ?H3 (not ?J3)) (and ?J3 (not ?H3))) (or (not ?G3) (and ?D3 ?H3 ?I3) (and ?Z2 ?J3 (not ?F3))) (or (not ?D3) ?E3) (or (not ?D3) (and ?Z2 ?E3 ?F3)) (or (not ?Z2) (and ?A3 (not ?C3)) (and ?C3 (not ?A3))) (or (not ?Z2) (and ?W2 ?A3 ?B3) (and ?S2 ?C3 (not ?Y2))) (or (not ?W2) ?X2) (or (not ?W2) (and ?S2 ?X2 ?Y2)) (or (not ?S2) (and ?T2 (not ?V2)) (and ?V2 (not ?T2))) (or (not ?S2) (and ?P2 ?T2 ?U2) (and ?L2 ?V2 (not ?R2))) (or (not ?P2) ?Q2) (or (not ?P2) (and ?L2 ?Q2 ?R2)) (or (not ?L2) (and ?M2 (not ?O2)) (and ?O2 (not ?M2))) (or (not ?L2) (and ?I2 ?M2 ?N2) (and ?E2 ?O2 (not ?K2))) (or (not ?I2) ?J2) (or (not ?I2) (and ?E2 ?J2 ?K2)) (or (not ?E2) (and ?F2 (not ?H2)) (and ?H2 (not ?F2))) (or (not ?E2) (and ?B2 ?F2 ?G2) (and ?X1 ?H2 (not ?D2))) (or (not ?B2) ?C2) (or (not ?B2) (and ?X1 ?C2 ?D2)) (or (not ?X1) (and ?Y1 (not ?A2)) (and ?A2 (not ?Y1))) (or (not ?X1) (and ?U1 ?Y1 ?Z1) (and ?Q1 ?A2 (not ?W1))) (or (not ?U1) ?V1) (or (not ?U1) (and ?Q1 ?V1 ?W1)) (or (not ?Q1) (and ?R1 (not ?T1)) (and ?T1 (not ?R1))) (or (not ?Q1) (and ?N1 ?R1 ?S1) (and ?J1 ?T1 (not ?P1))) (or (not ?N1) ?O1) (or (not ?N1) (and ?J1 ?O1 ?P1)) (or (not ?J1) (and ?K1 (not ?M1)) (and ?M1 (not ?K1))) (or (not ?J1) (and ?G1 ?K1 ?L1) (and ?C1 ?M1 (not ?I1))) (or (not ?G1) ?H1) (or (not ?G1) (and ?C1 ?H1 ?I1)) (or (not ?C1) (and ?D1 (not ?F1)) (and ?F1 (not ?D1))) (or (not ?C1) (and ?Z ?D1 ?E1) (and ?V ?F1 (not ?B1))) (or (not ?Z) ?A1) (or (not ?Z) (and ?V ?A1 ?B1)) (or (not ?V) ?X) (or (not ?V) (and ?W ?X (not ?Y))) (= ?Z7 (or ?R8 ?Q8)))))
(=> $x169253 |cp-rel-UnifiedReturnBlock|))))))))))))))))))))))))))))))))))))))))))))
)
(assert (not cp-rel-UnifiedReturnBlock))
(check-sat)
